N = 13;
H = 5;
T = 2;

avail = array3d(1..N, 1..H, 1..T, [2, 4, 8, 7, 6, 7, 8, 4, 4, 7, 10, 10, 2, 10, 9, 7, 9, 0, 9, 2, 2, 5, 5, 5, 5, 6, 6, 3, 10, 3, 0, 10, 7, 0, 7, 0, 0, 8, 9, 0, 8, 7, 8, 7, 7, 4, 9, 6, 1, 0, 4, 0, 4, 2, 0, 0, 2, 1, 10, 7, 7, 7, 0, 3, 1, 5, 8, 1, 0, 3, 8, 7, 1, 6, 10, 5, 6, 8, 3, 7, 0, 6, 4, 5, 8, 10, 10, 0, 2, 3, 0, 10, 9, 4, 1, 2, 6, 9, 8, 6, 10, 9, 10, 7, 0, 0, 10, 10, 4, 8, 0, 3, 9, 3, 7, 0, 9, 4, 9, 5, 4, 9, 0, 4, 10, 10, 9, 0, 9, 9]);

r = array2d(1..H, 1..T, [6, 1, 7, 4, 2, 4, 6, 0, 5, 7]);
